\ENCODING=ISO-8859-1
\Problem name: ilog.cplex

Minimize
 obj1: 99190 x1 + 92626 x2 + 92729 x3 + 94536 x4 + 92280 x5 + 102351 x6
       + 93074 x7 + 96626 x8 + 93275 x9 + 106230 x10 + 91581 x11 + 90550 x12
       + 97428 x13 + 92738 x14 + 93747 x15 + 94701 x16 + 108443 x17 + 93237 x18
       + 95139 x19 + 93676 x20 + 94497 x21 + 90453 x22 + 93551 x23 + 104089 x24
       + 105922 x25 + 109678 x26 + 105000 x27 + 94604 x28 + 104828 x29
       + 92100 x30 + 99556 x31 + 104387 x32 + 97307 x33 + 94483 x34 + 93653 x35
       + 101901 x36 + 104772 x37 + 94926 x38 + 91790 x39 + 104246 x40
       + 102612 x41 + 90553 x42 + 102447 x43 + 96171 x44 + 91510 x45
       + 109699 x46 + 100534 x47 + 107438 x48 + 109645 x49 + 108539 x50
       + 91843 x51 + 107415 x52 + 102415 x53 + 100094 x54 + 93766 x55
       + 96524 x56 + 100424 x57 + 92153 x58 + 100897 x59 + 95663 x60
       + 96714 x61 + 95316 x62 + 108847 x63 + 97952 x64 + 99956 x65
       + 108936 x66 + 104343 x67 + 90301 x68 + 107494 x69 + 90630 x70
       + 94677 x71 + 109460 x72 + 105751 x73 + 103448 x74 + 96986 x75
       + 90974 x76 + 94589 x77 + 90339 x78 + 107188 x79 + 98909 x80
       + 105848 x81 + 94801 x82 + 98306 x83 + 97968 x84 + 99852 x85 + 97657 x86
       + 105148 x87 + 92805 x88 + 94883 x89 + 100561 x90 + 107506 x91
       + 95859 x92 + 91652 x93 + 97152 x94 + 98952 x95 + 95657 x96 + 102502 x97
       + 108759 x98 + 93749 x99 + 103823 x100 + 103340 x101 + 103125 x102
       + 100538 x103 + 100914 x104 + 95264 x105 + 101832 x106 + 98196 x107
       + 98722 x108 + 92365 x109 + 94931 x110 + 106620 x111 + 109826 x112
       + 102372 x113 + 99756 x114 + 93161 x115 + 103964 x116 + 97632 x117
       + 104964 x118 + 94097 x119 + 95158 x120 + 103573 x121 + 97667 x122
       + 90002 x123 + 91438 x124 + 91726 x125 + 96366 x126 + 101423 x127
       + 90048 x128 + 105923 x129 + 97170 x130 + 101610 x131 + 94886 x132
       + 100706 x133 + 96447 x134 + 108565 x135 + 106001 x136 + 106609 x137
       + 94540 x138 + 96321 x139 + 103307 x140 + 99665 x141 + 106704 x142
       + 109136 x143 + 109932 x144 + 104878 x145 + 107947 x146 + 91275 x147
       + 90510 x148 + 95265 x149 + 94611 x150 + 103289 x151 + 109425 x152
       + 93096 x153 + 102520 x154 + 96039 x155 + 98867 x156 + 100603 x157
       + 99234 x158 + 99667 x159 + 102049 x160 + 103699 x161 + 106250 x162
       + 96301 x163 + 103059 x164 + 104136 x165 + 105883 x166 + 102482 x167
       + 91542 x168 + 103072 x169 + 107163 x170 + 90142 x171 + 97784 x172
       + 102129 x173 + 105205 x174 + 103405 x175 + 91749 x176 + 106822 x177
       + 109356 x178 + 102590 x179 + 108245 x180 + 99617 x181 + 95888 x182
       + 90469 x183 + 109167 x184 + 107248 x185 + 105766 x186 + 102481 x187
       + 99154 x188 + 103608 x189 + 97948 x190 + 108175 x191 + 104109 x192
       + 107749 x193 + 98702 x194 + 99086 x195 + 107962 x196 + 98830 x197
       + 103573 x198 + 108256 x199 + 94000 x200 + 104663 x201 + 91605 x202
       + 106221 x203 + 101512 x204 + 105234 x205 + 91576 x206 + 91856 x207
       + 102477 x208 + 104771 x209 + 97167 x210 + 108709 x211 + 109528 x212
       + 90188 x213 + 103024 x214 + 104483 x215 + 96752 x216 + 108553 x217
       + 104273 x218 + 99003 x219 + 90828 x220 + 101777 x221 + 108351 x222
       + 94333 x223 + 91626 x224 + 92775 x225 + 109908 x226 + 109580 x227
       + 108538 x228 + 104134 x229 + 97031 x230 + 92531 x231 + 91709 x232
       + 107656 x233 + 90215 x234 + 90408 x235 + 95741 x236 + 91149 x237
       + 104262 x238 + 92838 x239 + 97549 x240 + 99761 x241 + 99871 x242
       + 94122 x243 + 93439 x244 + 106366 x245 + 98237 x246 + 96320 x247
       + 96051 x248 + 98284 x249 + 109941 x250 + 103642 x251 + 108357 x252
       + 103113 x253 + 91847 x254 + 92063 x255 + 92982 x256 + 105515 x257
       + 100377 x258 + 97245 x259 + 101089 x260 + 102534 x261 + 99591 x262
       + 99865 x263 + 106068 x264 + 91584 x265 + 100043 x266 + 106020 x267
       + 98043 x268 + 107961 x269 + 104779 x270 + 94941 x271 + 97617 x272
       + 103395 x273 + 93129 x274 + 91269 x275 + 104341 x276 + 97524 x277
       + 97758 x278 + 99789 x279 + 93059 x280 + 100125 x281 + 105970 x282
       + 96785 x283 + 109583 x284 + 93489 x285 + 102342 x286 + 104076 x287
       + 96084 x288 + 101580 x289 + 106532 x290 + 99320 x291 + 96132 x292
       + 95422 x293 + 107436 x294 + 99298 x295 + 109478 x296 + 92600 x297
       + 92891 x298 + 91685 x299 + 107517 x300 + 101728 x301 + 91725 x302
       + 92044 x303 + 97944 x304 + 99516 x305 + 98420 x306 + 102098 x307
       + 109796 x308 + 104482 x309 + 97331 x310 + 95360 x311 + 105153 x312
       + 101509 x313 + 106320 x314 + 104069 x315 + 90267 x316 + 90936 x317
       + 109418 x318 + 102016 x319 + 101094 x320 + 100667 x321 + 108248 x322
       + 102314 x323 + 106144 x324 + 90227 x325 + 90278 x326 + 106746 x327
       + 92461 x328 + 106573 x329 + 101049 x330 + 105850 x331 + 102284 x332
       + 97915 x333 + 92228 x334 + 93217 x335 + 102949 x336 + 98828 x337
       + 107667 x338 + 92277 x339 + 103247 x340 + 107624 x341 + 105618 x342
       + 99376 x343 + 95701 x344 + 105251 x345 + 96807 x346 + 103042 x347
       + 106157 x348 + 93924 x349 + 105322 x350 + 106084 x351 + 109561 x352
       + 103217 x353 + 92050 x354 + 94527 x355 + 103970 x356 + 101542 x357
       + 98903 x358 + 105374 x359 + 103597 x360 + 96101 x361 + 100953 x362
       + 104668 x363 + 109656 x364 + 109329 x365 + 106883 x366 + 101035 x367
       + 92881 x368 + 108382 x369 + 95469 x370 + 92803 x371 + 108201 x372
       + 95141 x373 + 97999 x374 + 99773 x375 + 100245 x376 + 109278 x377
       + 109860 x378 + 107808 x379 + 102225 x380 + 92300 x381 + 107522 x382
       + 100264 x383 + 93571 x384 + 94330 x385 + 95623 x386 + 95416 x387
       + 94908 x388 + 97063 x389 + 101743 x390 + 107309 x391 + 102394 x392
       + 95784 x393 + 92956 x394 + 102216 x395 + 97678 x396 + 108302 x397
       + 105236 x398 + 103190 x399 + 94575 x400 + 99334 x401 + 94517 x402
       + 101168 x403 + 99078 x404 + 105121 x405 + 96477 x406 + 102653 x407
       + 105405 x408 + 94966 x409 + 101054 x410 + 101229 x411 + 107553 x412
       + 93900 x413 + 107252 x414 + 102970 x415 + 93160 x416 + 93821 x417
       + 103977 x418 + 104280 x419 + 104486 x420 + 99940 x421 + 108061 x422
       + 94955 x423 + 97561 x424 + 108795 x425 + 98183 x426 + 109596 x427
       + 104431 x428 + 101623 x429 + 95674 x430 + 107613 x431 + 94822 x432
       + 99451 x433 + 102398 x434 + 105395 x435 + 103480 x436 + 95762 x437
       + 97168 x438 + 101404 x439 + 104388 x440 + 107207 x441 + 97382 x442
       + 105711 x443 + 106121 x444 + 101241 x445 + 96125 x446 + 102746 x447
       + 107340 x448 + 91898 x449 + 93531 x450 + 102706 x451 + 100181 x452
       + 108539 x453 + 100547 x454 + 103485 x455 + 94021 x456 + 106618 x457
       + 108309 x458 + 92038 x459 + 102429 x460 + 104413 x461 + 106962 x462
       + 101781 x463 + 92064 x464 + 95117 x465 + 104015 x466 + 90912 x467
       + 93876 x468 + 99836 x469 + 94241 x470 + 95476 x471 + 104149 x472
       + 93740 x473 + 90631 x474 + 100543 x475 + 95790 x476 + 95017 x477
       + 99070 x478 + 103041 x479 + 98692 x480 + 92108 x481 + 100328 x482
       + 90038 x483 + 92161 x484 + 101663 x485 + 108743 x486 + 107967 x487
       + 108204 x488 + 108965 x489 + 96968 x490 + 102300 x491 + 101052 x492
       + 102750 x493 + 103365 x494 + 97476 x495 + 99087 x496 + 107039 x497
       + 106198 x498 + 99749 x499 + 102583 x500 + 94055 x501 + 91517 x502
       + 97817 x503 + 93442 x504 + 107402 x505 + 100967 x506 + 96670 x507
       + 106275 x508 + 104538 x509 + 103515 x510 + 108736 x511 + 94091 x512
       + 96604 x513 + 98754 x514 + 95819 x515 + 98265 x516 + 98406 x517
       + 93652 x518 + 100318 x519 + 109515 x520 + 101670 x521 + 99473 x522
       + 104883 x523 + 104302 x524 + 90649 x525 + 91123 x526 + 95924 x527
       + 99341 x528 + 90731 x529 + 97239 x530 + 98269 x531 + 105870 x532
       + 97935 x533 + 106109 x534 + 95824 x535 + 104858 x536 + 99976 x537
       + 99860 x538 + 96186 x539 + 104494 x540 + 102144 x541 + 92648 x542
       + 94846 x543 + 97960 x544 + 94327 x545 + 96144 x546 + 92603 x547
       + 101324 x548 + 100377 x549 + 100759 x550 + 105791 x551 + 91547 x552
       + 108081 x553 + 100813 x554 + 98100 x555 + 98311 x556 + 92912 x557
       + 105265 x558 + 107941 x559 + 106189 x560 + 106396 x561 + 98524 x562
       + 98685 x563 + 95674 x564 + 93702 x565 + 95361 x566 + 96783 x567
       + 100169 x568 + 105708 x569 + 99270 x570 + 94610 x571 + 108339 x572
       + 96636 x573 + 92637 x574 + 108480 x575 + 100616 x576 + 104704 x577
       + 91854 x578 + 106526 x579 + 103672 x580 + 100384 x581 + 90775 x582
       + 95984 x583 + 97322 x584 + 94443 x585 + 91938 x586 + 104933 x587
       + 94583 x588 + 106312 x589 + 106498 x590 + 109643 x591 + 97510 x592
       + 102215 x593 + 91069 x594 + 105410 x595 + 108951 x596 + 102055 x597
       + 102475 x598 + 96151 x599 + 97427 x600 + 37090 x601 + 38470 x602
       + 40692 x603 + 41671 x604 + 42836 x605 + 40114 x606 + 38310 x607
       + 43823 x608 + 43579 x609 + 39047 x610 + 36802 x611 + 39788 x612
       + 42840 x613 + 39277 x614 + 38683 x615 + 42367 x616 + 42048 x617
       + 41356 x618 + 37292 x619 + 41731 x620 + 42295 x621 + 36663 x622
       + 37929 x623 + 41087 x624 + 40937 x625 + 38612 x626 + 38625 x627
       + 39327 x628 + 43171 x629 + 37300 x630 + 36607 x631 + 38034 x632
       + 42691 x633 + 42462 x634 + 41766 x635 + 38916 x636 + 40204 x637
       + 40752 x638 + 42574 x639 + 41299 x640 + 40030 x641 + 41248 x642
       + 42652 x643 + 39539 x644 + 41210 x645 + 41695 x646 + 43813 x647
       + 37231 x648 + 40505 x649 + 37418 x650 + 41700 x651 + 42846 x652
       + 38329 x653 + 42928 x654 + 43210 x655 + 41937 x656 + 41150 x657
       + 39162 x658 + 42709 x659 + 11621 x660
Subject To
 c1:   x2 + x5 + x13 + x16 - x18 + x22 - x23 - x31 - x36 + x40 - x46 + x51
       - x52 - x54 + x59  = 0
 c2:   x62 + x65 + x73 + x76 - x78 + x82 - x83 - x91 - x96 + x100 - x106 + x111
       - x112 - x114 + x119  = 0
 c3:   x122 + x125 + x133 + x136 - x138 + x142 - x143 - x151 - x156 + x160
       - x166 + x171 - x172 - x174 + x179  = 1
 c4:   x182 + x185 + x193 + x196 - x198 + x202 - x203 - x211 - x216 + x220
       - x226 + x231 - x232 - x234 + x239  = 0
 c5:   x242 + x245 + x253 + x256 - x258 + x262 - x263 - x271 - x276 + x280
       - x286 + x291 - x292 - x294 + x299  = -1
 c6:   x302 + x305 + x313 + x316 - x318 + x322 - x323 - x331 - x336 + x340
       - x346 + x351 - x352 - x354 + x359  = 0
 c7:   x362 + x365 + x373 + x376 - x378 + x382 - x383 - x391 - x396 + x400
       - x406 + x411 - x412 - x414 + x419  = 0
 c8:   x422 + x425 + x433 + x436 - x438 + x442 - x443 - x451 - x456 + x460
       - x466 + x471 - x472 - x474 + x479  = 0
 c9:   x482 + x485 + x493 + x496 - x498 + x502 - x503 - x511 - x516 + x520
       - x526 + x531 - x532 - x534 + x539  = -1
 c10:  x542 + x545 + x553 + x556 - x558 + x562 - x563 - x571 - x576 + x580
       - x586 + x591 - x592 - x594 + x599  = 0
 c11:  - x1 - x2 - x4 - x8 - x12 + x20 + x23 - x24 - x33 + x41 + x49 + x58
        = -1
 c12:  - x61 - x62 - x64 - x68 - x72 + x80 + x83 - x84 - x93 + x101 + x109
       + x118  = 0
 c13:  - x121 - x122 - x124 - x128 - x132 + x140 + x143 - x144 - x153 + x161
       + x169 + x178  = 0
 c14:  - x181 - x182 - x184 - x188 - x192 + x200 + x203 - x204 - x213 + x221
       + x229 + x238  = 0
 c15:  - x241 - x242 - x244 - x248 - x252 + x260 + x263 - x264 - x273 + x281
       + x289 + x298  = 0
 c16:  - x301 - x302 - x304 - x308 - x312 + x320 + x323 - x324 - x333 + x341
       + x349 + x358  = 0
 c17:  - x361 - x362 - x364 - x368 - x372 + x380 + x383 - x384 - x393 + x401
       + x409 + x418  = 0
 c18:  - x421 - x422 - x424 - x428 - x432 + x440 + x443 - x444 - x453 + x461
       + x469 + x478  = 0
 c19:  - x481 - x482 - x484 - x488 - x492 + x500 + x503 - x504 - x513 + x521
       + x529 + x538  = 0
 c20:  - x541 - x542 - x544 - x548 - x552 + x560 + x563 - x564 - x573 + x581
       + x589 + x598  = 0
 c21:  - x7 - x10 - x16 - x17 - x26 + x32 + x34 - x37 - x49 + x52 + x55  = 1
 c22:  - x67 - x70 - x76 - x77 - x86 + x92 + x94 - x97 - x109 + x112 + x115
        = -1
 c23:  - x127 - x130 - x136 - x137 - x146 + x152 + x154 - x157 - x169 + x172
       + x175  = 0
 c24:  - x187 - x190 - x196 - x197 - x206 + x212 + x214 - x217 - x229 + x232
       + x235  = 0
 c25:  - x247 - x250 - x256 - x257 - x266 + x272 + x274 - x277 - x289 + x292
       + x295  = 0
 c26:  - x307 - x310 - x316 - x317 - x326 + x332 + x334 - x337 - x349 + x352
       + x355  = 0
 c27:  - x367 - x370 - x376 - x377 - x386 + x392 + x394 - x397 - x409 + x412
       + x415  = 0
 c28:  - x427 - x430 - x436 - x437 - x446 + x452 + x454 - x457 - x469 + x472
       + x475  = -1
 c29:  - x487 - x490 - x496 - x497 - x506 + x512 + x514 - x517 - x529 + x532
       + x535  = 0
 c30:  - x547 - x550 - x556 - x557 - x566 + x572 + x574 - x577 - x589 + x592
       + x595  = -1
 c31:  x4 - x9 + x14 + x17 - x25 - x27 + x35 + x36 + x42 - x55 - x59  = 0
 c32:  x64 - x69 + x74 + x77 - x85 - x87 + x95 + x96 + x102 - x115 - x119  = 0
 c33:  x124 - x129 + x134 + x137 - x145 - x147 + x155 + x156 + x162 - x175
       - x179  = 0
 c34:  x184 - x189 + x194 + x197 - x205 - x207 + x215 + x216 + x222 - x235
       - x239  = 1
 c35:  x244 - x249 + x254 + x257 - x265 - x267 + x275 + x276 + x282 - x295
       - x299  = 0
 c36:  x304 - x309 + x314 + x317 - x325 - x327 + x335 + x336 + x342 - x355
       - x359  = 0
 c37:  x364 - x369 + x374 + x377 - x385 - x387 + x395 + x396 + x402 - x415
       - x419  = 1
 c38:  x424 - x429 + x434 + x437 - x445 - x447 + x455 + x456 + x462 - x475
       - x479  = 0
 c39:  x484 - x489 + x494 + x497 - x505 - x507 + x515 + x516 + x522 - x535
       - x539  = 0
 c40:  x544 - x549 + x554 + x557 - x565 - x567 + x575 + x576 + x582 - x595
       - x599  = 0
 c41:  - x6 + x11 + x12 - x14 + x18 + x27 - x28 - x29 + x30 - x40 + x44 + x45
       + x47 - x56  = 0
 c42:  - x66 + x71 + x72 - x74 + x78 + x87 - x88 - x89 + x90 - x100 + x104
       + x105 + x107 - x116  = 0
 c43:  - x126 + x131 + x132 - x134 + x138 + x147 - x148 - x149 + x150 - x160
       + x164 + x165 + x167 - x176  = -1
 c44:  - x186 + x191 + x192 - x194 + x198 + x207 - x208 - x209 + x210 - x220
       + x224 + x225 + x227 - x236  = 0
 c45:  - x246 + x251 + x252 - x254 + x258 + x267 - x268 - x269 + x270 - x280
       + x284 + x285 + x287 - x296  = 0
 c46:  - x306 + x311 + x312 - x314 + x318 + x327 - x328 - x329 + x330 - x340
       + x344 + x345 + x347 - x356  = 0
 c47:  - x366 + x371 + x372 - x374 + x378 + x387 - x388 - x389 + x390 - x400
       + x404 + x405 + x407 - x416  = 0
 c48:  - x426 + x431 + x432 - x434 + x438 + x447 - x448 - x449 + x450 - x460
       + x464 + x465 + x467 - x476  = 0
 c49:  - x486 + x491 + x492 - x494 + x498 + x507 - x508 - x509 + x510 - x520
       + x524 + x525 + x527 - x536  = 0
 c50:  - x546 + x551 + x552 - x554 + x558 + x567 - x568 - x569 + x570 - x580
       + x584 + x585 + x587 - x596  = 0
 c51:  x6 + x9 - x21 + x31 + x33 - x34 - x38 + x39 - x42 - x45 - x50 - x51
       - x58 + x60  = 0
 c52:  x66 + x69 - x81 + x91 + x93 - x94 - x98 + x99 - x102 - x105 - x110
       - x111 - x118 + x120  = 0
 c53:  x126 + x129 - x141 + x151 + x153 - x154 - x158 + x159 - x162 - x165
       - x170 - x171 - x178 + x180  = 0
 c54:  x186 + x189 - x201 + x211 + x213 - x214 - x218 + x219 - x222 - x225
       - x230 - x231 - x238 + x240  = 0
 c55:  x246 + x249 - x261 + x271 + x273 - x274 - x278 + x279 - x282 - x285
       - x290 - x291 - x298 + x300  = 0
 c56:  x306 + x309 - x321 + x331 + x333 - x334 - x338 + x339 - x342 - x345
       - x350 - x351 - x358 + x360  = 0
 c57:  x366 + x369 - x381 + x391 + x393 - x394 - x398 + x399 - x402 - x405
       - x410 - x411 - x418 + x420  = 0
 c58:  x426 + x429 - x441 + x451 + x453 - x454 - x458 + x459 - x462 - x465
       - x470 - x471 - x478 + x480  = 0
 c59:  x486 + x489 - x501 + x511 + x513 - x514 - x518 + x519 - x522 - x525
       - x530 - x531 - x538 + x540  = 0
 c60:  x546 + x549 - x561 + x571 + x573 - x574 - x578 + x579 - x582 - x585
       - x590 - x591 - x598 + x600  = 0
 c61:  x10 - x13 + x15 - x20 + x24 + x28 - x30 + x43 + x46 + x48 + x50  = 0
 c62:  x70 - x73 + x75 - x80 + x84 + x88 - x90 + x103 + x106 + x108 + x110  = 0
 c63:  x130 - x133 + x135 - x140 + x144 + x148 - x150 + x163 + x166 + x168
       + x170  = 0
 c64:  x190 - x193 + x195 - x200 + x204 + x208 - x210 + x223 + x226 + x228
       + x230  = 0
 c65:  x250 - x253 + x255 - x260 + x264 + x268 - x270 + x283 + x286 + x288
       + x290  = 0
 c66:  x310 - x313 + x315 - x320 + x324 + x328 - x330 + x343 + x346 + x348
       + x350  = 1
 c67:  x370 - x373 + x375 - x380 + x384 + x388 - x390 + x403 + x406 + x408
       + x410  = -1
 c68:  x430 - x433 + x435 - x440 + x444 + x448 - x450 + x463 + x466 + x468
       + x470  = 1
 c69:  x490 - x493 + x495 - x500 + x504 + x508 - x510 + x523 + x526 + x528
       + x530  = 0
 c70:  x550 - x553 + x555 - x560 + x564 + x568 - x570 + x583 + x586 + x588
       + x590  = 0
 c71:  x1 - x3 + x25 - x32 + x37 - x41 - x47 - x48 + x53 + x56 - x57 - x60  = 0
 c72:  x61 - x63 + x85 - x92 + x97 - x101 - x107 - x108 + x113 + x116 - x117
       - x120  = 0
 c73:  x121 - x123 + x145 - x152 + x157 - x161 - x167 - x168 + x173 + x176
       - x177 - x180  = 0
 c74:  x181 - x183 + x205 - x212 + x217 - x221 - x227 - x228 + x233 + x236
       - x237 - x240  = 0
 c75:  x241 - x243 + x265 - x272 + x277 - x281 - x287 - x288 + x293 + x296
       - x297 - x300  = 0
 c76:  x301 - x303 + x325 - x332 + x337 - x341 - x347 - x348 + x353 + x356
       - x357 - x360  = -1
 c77:  x361 - x363 + x385 - x392 + x397 - x401 - x407 - x408 + x413 + x416
       - x417 - x420  = 0
 c78:  x421 - x423 + x445 - x452 + x457 - x461 - x467 - x468 + x473 + x476
       - x477 - x480  = 0
 c79:  x481 - x483 + x505 - x512 + x517 - x521 - x527 - x528 + x533 + x536
       - x537 - x540  = 0
 c80:  x541 - x543 + x565 - x572 + x577 - x581 - x587 - x588 + x593 + x596
       - x597 - x600  = 0
 c81:  - x11 - x19 - x22 + x26 + x29 - x35 + x38 - x43 + x54 + x57  = 0
 c82:  - x71 - x79 - x82 + x86 + x89 - x95 + x98 - x103 + x114 + x117  = 0
 c83:  - x131 - x139 - x142 + x146 + x149 - x155 + x158 - x163 + x174 + x177
        = 0
 c84:  - x191 - x199 - x202 + x206 + x209 - x215 + x218 - x223 + x234 + x237
        = -1
 c85:  - x251 - x259 - x262 + x266 + x269 - x275 + x278 - x283 + x294 + x297
        = 1
 c86:  - x311 - x319 - x322 + x326 + x329 - x335 + x338 - x343 + x354 + x357
        = 0
 c87:  - x371 - x379 - x382 + x386 + x389 - x395 + x398 - x403 + x414 + x417
        = 0
 c88:  - x431 - x439 - x442 + x446 + x449 - x455 + x458 - x463 + x474 + x477
        = 0
 c89:  - x491 - x499 - x502 + x506 + x509 - x515 + x518 - x523 + x534 + x537
        = 0
 c90:  - x551 - x559 - x562 + x566 + x569 - x575 + x578 - x583 + x594 + x597
        = 1
 c91:  x3 - x5 + x7 + x8 - x15 + x19 + x21 - x39 - x44 - x53  = 0
 c92:  x63 - x65 + x67 + x68 - x75 + x79 + x81 - x99 - x104 - x113  = 1
 c93:  x123 - x125 + x127 + x128 - x135 + x139 + x141 - x159 - x164 - x173  = 0
 c94:  x183 - x185 + x187 + x188 - x195 + x199 + x201 - x219 - x224 - x233  = 0
 c95:  x243 - x245 + x247 + x248 - x255 + x259 + x261 - x279 - x284 - x293  = 0
 c96:  x303 - x305 + x307 + x308 - x315 + x319 + x321 - x339 - x344 - x353  = 0
 c97:  x363 - x365 + x367 + x368 - x375 + x379 + x381 - x399 - x404 - x413  = 0
 c98:  x423 - x425 + x427 + x428 - x435 + x439 + x441 - x459 - x464 - x473  = 0
 c99:  x483 - x485 + x487 + x488 - x495 + x499 + x501 - x519 - x524 - x533  = 1
 c100: x543 - x545 + x547 + x548 - x555 + x559 + x561 - x579 - x584 - x593  = 0
 c101: 4 x1 + 4 x61 + 4 x121 + 4 x181 + 4 x241 + 4 x301 + 4 x361 + 4 x421
       + 4 x481 + 4 x541 - 5 x601 <= 0
 c102: 4 x2 + 4 x62 + 4 x122 + 4 x182 + 4 x242 + 4 x302 + 4 x362 + 4 x422
       + 4 x482 + 4 x542 - 5 x602 <= 0
 c103: 4 x3 + 4 x63 + 4 x123 + 4 x183 + 4 x243 + 4 x303 + 4 x363 + 4 x423
       + 4 x483 + 4 x543 - 5 x603 <= 0
 c104: 4 x4 + 4 x64 + 4 x124 + 4 x184 + 4 x244 + 4 x304 + 4 x364 + 4 x424
       + 4 x484 + 4 x544 - 5 x604 <= 0
 c105: 4 x5 + 4 x65 + 4 x125 + 4 x185 + 4 x245 + 4 x305 + 4 x365 + 4 x425
       + 4 x485 + 4 x545 - 5 x605 <= 0
 c106: 4 x6 + 4 x66 + 4 x126 + 4 x186 + 4 x246 + 4 x306 + 4 x366 + 4 x426
       + 4 x486 + 4 x546 - 5 x606 <= 0
 c107: 4 x7 + 4 x67 + 4 x127 + 4 x187 + 4 x247 + 4 x307 + 4 x367 + 4 x427
       + 4 x487 + 4 x547 - 5 x607 <= 0
 c108: 4 x8 + 4 x68 + 4 x128 + 4 x188 + 4 x248 + 4 x308 + 4 x368 + 4 x428
       + 4 x488 + 4 x548 - 5 x608 <= 0
 c109: 4 x9 + 4 x69 + 4 x129 + 4 x189 + 4 x249 + 4 x309 + 4 x369 + 4 x429
       + 4 x489 + 4 x549 - 5 x609 <= 0
 c110: 4 x10 + 4 x70 + 4 x130 + 4 x190 + 4 x250 + 4 x310 + 4 x370 + 4 x430
       + 4 x490 + 4 x550 - 5 x610 <= 0
 c111: 4 x11 + 4 x71 + 4 x131 + 4 x191 + 4 x251 + 4 x311 + 4 x371 + 4 x431
       + 4 x491 + 4 x551 - 5 x611 <= 0
 c112: 4 x12 + 4 x72 + 4 x132 + 4 x192 + 4 x252 + 4 x312 + 4 x372 + 4 x432
       + 4 x492 + 4 x552 - 5 x612 <= 0
 c113: 4 x13 + 4 x73 + 4 x133 + 4 x193 + 4 x253 + 4 x313 + 4 x373 + 4 x433
       + 4 x493 + 4 x553 - 5 x613 <= 0
 c114: 4 x14 + 4 x74 + 4 x134 + 4 x194 + 4 x254 + 4 x314 + 4 x374 + 4 x434
       + 4 x494 + 4 x554 - 5 x614 <= 0
 c115: 4 x15 + 4 x75 + 4 x135 + 4 x195 + 4 x255 + 4 x315 + 4 x375 + 4 x435
       + 4 x495 + 4 x555 - 5 x615 <= 0
 c116: 4 x16 + 4 x76 + 4 x136 + 4 x196 + 4 x256 + 4 x316 + 4 x376 + 4 x436
       + 4 x496 + 4 x556 - 5 x616 <= 0
 c117: 4 x17 + 4 x77 + 4 x137 + 4 x197 + 4 x257 + 4 x317 + 4 x377 + 4 x437
       + 4 x497 + 4 x557 - 5 x617 <= 0
 c118: 4 x18 + 4 x78 + 4 x138 + 4 x198 + 4 x258 + 4 x318 + 4 x378 + 4 x438
       + 4 x498 + 4 x558 - 5 x618 <= 0
 c119: 4 x19 + 4 x79 + 4 x139 + 4 x199 + 4 x259 + 4 x319 + 4 x379 + 4 x439
       + 4 x499 + 4 x559 - 5 x619 <= 0
 c120: 4 x20 + 4 x80 + 4 x140 + 4 x200 + 4 x260 + 4 x320 + 4 x380 + 4 x440
       + 4 x500 + 4 x560 - 5 x620 <= 0
 c121: 4 x21 + 4 x81 + 4 x141 + 4 x201 + 4 x261 + 4 x321 + 4 x381 + 4 x441
       + 4 x501 + 4 x561 - 5 x621 <= 0
 c122: 4 x22 + 4 x82 + 4 x142 + 4 x202 + 4 x262 + 4 x322 + 4 x382 + 4 x442
       + 4 x502 + 4 x562 - 5 x622 <= 0
 c123: 4 x23 + 4 x83 + 4 x143 + 4 x203 + 4 x263 + 4 x323 + 4 x383 + 4 x443
       + 4 x503 + 4 x563 - 5 x623 <= 0
 c124: 4 x24 + 4 x84 + 4 x144 + 4 x204 + 4 x264 + 4 x324 + 4 x384 + 4 x444
       + 4 x504 + 4 x564 - 5 x624 <= 0
 c125: 4 x25 + 4 x85 + 4 x145 + 4 x205 + 4 x265 + 4 x325 + 4 x385 + 4 x445
       + 4 x505 + 4 x565 - 5 x625 <= 0
 c126: 4 x26 + 4 x86 + 4 x146 + 4 x206 + 4 x266 + 4 x326 + 4 x386 + 4 x446
       + 4 x506 + 4 x566 - 5 x626 <= 0
 c127: 4 x27 + 4 x87 + 4 x147 + 4 x207 + 4 x267 + 4 x327 + 4 x387 + 4 x447
       + 4 x507 + 4 x567 - 5 x627 <= 0
 c128: 4 x28 + 4 x88 + 4 x148 + 4 x208 + 4 x268 + 4 x328 + 4 x388 + 4 x448
       + 4 x508 + 4 x568 - 5 x628 <= 0
 c129: 4 x29 + 4 x89 + 4 x149 + 4 x209 + 4 x269 + 4 x329 + 4 x389 + 4 x449
       + 4 x509 + 4 x569 - 5 x629 <= 0
 c130: 4 x30 + 4 x90 + 4 x150 + 4 x210 + 4 x270 + 4 x330 + 4 x390 + 4 x450
       + 4 x510 + 4 x570 - 5 x630 <= 0
 c131: 4 x31 + 4 x91 + 4 x151 + 4 x211 + 4 x271 + 4 x331 + 4 x391 + 4 x451
       + 4 x511 + 4 x571 - 5 x631 <= 0
 c132: 4 x32 + 4 x92 + 4 x152 + 4 x212 + 4 x272 + 4 x332 + 4 x392 + 4 x452
       + 4 x512 + 4 x572 - 5 x632 <= 0
 c133: 4 x33 + 4 x93 + 4 x153 + 4 x213 + 4 x273 + 4 x333 + 4 x393 + 4 x453
       + 4 x513 + 4 x573 - 5 x633 <= 0
 c134: 4 x34 + 4 x94 + 4 x154 + 4 x214 + 4 x274 + 4 x334 + 4 x394 + 4 x454
       + 4 x514 + 4 x574 - 5 x634 <= 0
 c135: 4 x35 + 4 x95 + 4 x155 + 4 x215 + 4 x275 + 4 x335 + 4 x395 + 4 x455
       + 4 x515 + 4 x575 - 5 x635 <= 0
 c136: 4 x36 + 4 x96 + 4 x156 + 4 x216 + 4 x276 + 4 x336 + 4 x396 + 4 x456
       + 4 x516 + 4 x576 - 5 x636 <= 0
 c137: 4 x37 + 4 x97 + 4 x157 + 4 x217 + 4 x277 + 4 x337 + 4 x397 + 4 x457
       + 4 x517 + 4 x577 - 5 x637 <= 0
 c138: 4 x38 + 4 x98 + 4 x158 + 4 x218 + 4 x278 + 4 x338 + 4 x398 + 4 x458
       + 4 x518 + 4 x578 - 5 x638 <= 0
 c139: 4 x39 + 4 x99 + 4 x159 + 4 x219 + 4 x279 + 4 x339 + 4 x399 + 4 x459
       + 4 x519 + 4 x579 - 5 x639 <= 0
 c140: 4 x40 + 4 x100 + 4 x160 + 4 x220 + 4 x280 + 4 x340 + 4 x400 + 4 x460
       + 4 x520 + 4 x580 - 5 x640 <= 0
 c141: 4 x41 + 4 x101 + 4 x161 + 4 x221 + 4 x281 + 4 x341 + 4 x401 + 4 x461
       + 4 x521 + 4 x581 - 5 x641 <= 0
 c142: 4 x42 + 4 x102 + 4 x162 + 4 x222 + 4 x282 + 4 x342 + 4 x402 + 4 x462
       + 4 x522 + 4 x582 - 5 x642 <= 0
 c143: 4 x43 + 4 x103 + 4 x163 + 4 x223 + 4 x283 + 4 x343 + 4 x403 + 4 x463
       + 4 x523 + 4 x583 - 5 x643 <= 0
 c144: 4 x44 + 4 x104 + 4 x164 + 4 x224 + 4 x284 + 4 x344 + 4 x404 + 4 x464
       + 4 x524 + 4 x584 - 5 x644 <= 0
 c145: 4 x45 + 4 x105 + 4 x165 + 4 x225 + 4 x285 + 4 x345 + 4 x405 + 4 x465
       + 4 x525 + 4 x585 - 5 x645 <= 0
 c146: 4 x46 + 4 x106 + 4 x166 + 4 x226 + 4 x286 + 4 x346 + 4 x406 + 4 x466
       + 4 x526 + 4 x586 - 5 x646 <= 0
 c147: 4 x47 + 4 x107 + 4 x167 + 4 x227 + 4 x287 + 4 x347 + 4 x407 + 4 x467
       + 4 x527 + 4 x587 - 5 x647 <= 0
 c148: 4 x48 + 4 x108 + 4 x168 + 4 x228 + 4 x288 + 4 x348 + 4 x408 + 4 x468
       + 4 x528 + 4 x588 - 5 x648 <= 0
 c149: 4 x49 + 4 x109 + 4 x169 + 4 x229 + 4 x289 + 4 x349 + 4 x409 + 4 x469
       + 4 x529 + 4 x589 - 5 x649 <= 0
 c150: 4 x50 + 4 x110 + 4 x170 + 4 x230 + 4 x290 + 4 x350 + 4 x410 + 4 x470
       + 4 x530 + 4 x590 - 5 x650 <= 0
 c151: 4 x51 + 4 x111 + 4 x171 + 4 x231 + 4 x291 + 4 x351 + 4 x411 + 4 x471
       + 4 x531 + 4 x591 - 5 x651 <= 0
 c152: 4 x52 + 4 x112 + 4 x172 + 4 x232 + 4 x292 + 4 x352 + 4 x412 + 4 x472
       + 4 x532 + 4 x592 - 5 x652 <= 0
 c153: 4 x53 + 4 x113 + 4 x173 + 4 x233 + 4 x293 + 4 x353 + 4 x413 + 4 x473
       + 4 x533 + 4 x593 - 5 x653 <= 0
 c154: 4 x54 + 4 x114 + 4 x174 + 4 x234 + 4 x294 + 4 x354 + 4 x414 + 4 x474
       + 4 x534 + 4 x594 - 5 x654 <= 0
 c155: 4 x55 + 4 x115 + 4 x175 + 4 x235 + 4 x295 + 4 x355 + 4 x415 + 4 x475
       + 4 x535 + 4 x595 - 5 x655 <= 0
 c156: 4 x56 + 4 x116 + 4 x176 + 4 x236 + 4 x296 + 4 x356 + 4 x416 + 4 x476
       + 4 x536 + 4 x596 - 5 x656 <= 0
 c157: 4 x57 + 4 x117 + 4 x177 + 4 x237 + 4 x297 + 4 x357 + 4 x417 + 4 x477
       + 4 x537 + 4 x597 - 5 x657 <= 0
 c158: 4 x58 + 4 x118 + 4 x178 + 4 x238 + 4 x298 + 4 x358 + 4 x418 + 4 x478
       + 4 x538 + 4 x598 - 5 x658 <= 0
 c159: 4 x59 + 4 x119 + 4 x179 + 4 x239 + 4 x299 + 4 x359 + 4 x419 + 4 x479
       + 4 x539 + 4 x599 - 5 x659 <= 0
 c160: 4 x60 + 4 x120 + 4 x180 + 4 x240 + 4 x300 + 4 x360 + 4 x420 + 4 x480
       + 4 x540 + 4 x600 - 5 x660 <= 0
Bounds
 0 <= x1 <= 1
 0 <= x2 <= 1
 0 <= x3 <= 1
 0 <= x4 <= 1
 0 <= x5 <= 1
 0 <= x6 <= 1
 0 <= x7 <= 1
 0 <= x8 <= 1
 0 <= x9 <= 1
 0 <= x10 <= 1
 0 <= x11 <= 1
 0 <= x12 <= 1
 0 <= x13 <= 1
 0 <= x14 <= 1
 0 <= x15 <= 1
 0 <= x16 <= 1
 0 <= x17 <= 1
 0 <= x18 <= 1
 0 <= x19 <= 1
 0 <= x20 <= 1
 0 <= x21 <= 1
 0 <= x22 <= 1
 0 <= x23 <= 1
 0 <= x24 <= 1
 0 <= x25 <= 1
 0 <= x26 <= 1
 0 <= x27 <= 1
 0 <= x28 <= 1
 0 <= x29 <= 1
 0 <= x30 <= 1
 0 <= x31 <= 1
 0 <= x32 <= 1
 0 <= x33 <= 1
 0 <= x34 <= 1
 0 <= x35 <= 1
 0 <= x36 <= 1
 0 <= x37 <= 1
 0 <= x38 <= 1
 0 <= x39 <= 1
 0 <= x40 <= 1
 0 <= x41 <= 1
 0 <= x42 <= 1
 0 <= x43 <= 1
 0 <= x44 <= 1
 0 <= x45 <= 1
 0 <= x46 <= 1
 0 <= x47 <= 1
 0 <= x48 <= 1
 0 <= x49 <= 1
 0 <= x50 <= 1
 0 <= x51 <= 1
 0 <= x52 <= 1
 0 <= x53 <= 1
 0 <= x54 <= 1
 0 <= x55 <= 1
 0 <= x56 <= 1
 0 <= x57 <= 1
 0 <= x58 <= 1
 0 <= x59 <= 1
 0 <= x60 <= 1
 0 <= x61 <= 1
 0 <= x62 <= 1
 0 <= x63 <= 1
 0 <= x64 <= 1
 0 <= x65 <= 1
 0 <= x66 <= 1
 0 <= x67 <= 1
 0 <= x68 <= 1
 0 <= x69 <= 1
 0 <= x70 <= 1
 0 <= x71 <= 1
 0 <= x72 <= 1
 0 <= x73 <= 1
 0 <= x74 <= 1
 0 <= x75 <= 1
 0 <= x76 <= 1
 0 <= x77 <= 1
 0 <= x78 <= 1
 0 <= x79 <= 1
 0 <= x80 <= 1
 0 <= x81 <= 1
 0 <= x82 <= 1
 0 <= x83 <= 1
 0 <= x84 <= 1
 0 <= x85 <= 1
 0 <= x86 <= 1
 0 <= x87 <= 1
 0 <= x88 <= 1
 0 <= x89 <= 1
 0 <= x90 <= 1
 0 <= x91 <= 1
 0 <= x92 <= 1
 0 <= x93 <= 1
 0 <= x94 <= 1
 0 <= x95 <= 1
 0 <= x96 <= 1
 0 <= x97 <= 1
 0 <= x98 <= 1
 0 <= x99 <= 1
 0 <= x100 <= 1
 0 <= x101 <= 1
 0 <= x102 <= 1
 0 <= x103 <= 1
 0 <= x104 <= 1
 0 <= x105 <= 1
 0 <= x106 <= 1
 0 <= x107 <= 1
 0 <= x108 <= 1
 0 <= x109 <= 1
 0 <= x110 <= 1
 0 <= x111 <= 1
 0 <= x112 <= 1
 0 <= x113 <= 1
 0 <= x114 <= 1
 0 <= x115 <= 1
 0 <= x116 <= 1
 0 <= x117 <= 1
 0 <= x118 <= 1
 0 <= x119 <= 1
 0 <= x120 <= 1
 0 <= x121 <= 1
 0 <= x122 <= 1
 0 <= x123 <= 1
 0 <= x124 <= 1
 0 <= x125 <= 1
 0 <= x126 <= 1
 0 <= x127 <= 1
 0 <= x128 <= 1
 0 <= x129 <= 1
 0 <= x130 <= 1
 0 <= x131 <= 1
 0 <= x132 <= 1
 0 <= x133 <= 1
 0 <= x134 <= 1
 0 <= x135 <= 1
 0 <= x136 <= 1
 0 <= x137 <= 1
 0 <= x138 <= 1
 0 <= x139 <= 1
 0 <= x140 <= 1
 0 <= x141 <= 1
 0 <= x142 <= 1
 0 <= x143 <= 1
 0 <= x144 <= 1
 0 <= x145 <= 1
 0 <= x146 <= 1
 0 <= x147 <= 1
 0 <= x148 <= 1
 0 <= x149 <= 1
 0 <= x150 <= 1
 0 <= x151 <= 1
 0 <= x152 <= 1
 0 <= x153 <= 1
 0 <= x154 <= 1
 0 <= x155 <= 1
 0 <= x156 <= 1
 0 <= x157 <= 1
 0 <= x158 <= 1
 0 <= x159 <= 1
 0 <= x160 <= 1
 0 <= x161 <= 1
 0 <= x162 <= 1
 0 <= x163 <= 1
 0 <= x164 <= 1
 0 <= x165 <= 1
 0 <= x166 <= 1
 0 <= x167 <= 1
 0 <= x168 <= 1
 0 <= x169 <= 1
 0 <= x170 <= 1
 0 <= x171 <= 1
 0 <= x172 <= 1
 0 <= x173 <= 1
 0 <= x174 <= 1
 0 <= x175 <= 1
 0 <= x176 <= 1
 0 <= x177 <= 1
 0 <= x178 <= 1
 0 <= x179 <= 1
 0 <= x180 <= 1
 0 <= x181 <= 1
 0 <= x182 <= 1
 0 <= x183 <= 1
 0 <= x184 <= 1
 0 <= x185 <= 1
 0 <= x186 <= 1
 0 <= x187 <= 1
 0 <= x188 <= 1
 0 <= x189 <= 1
 0 <= x190 <= 1
 0 <= x191 <= 1
 0 <= x192 <= 1
 0 <= x193 <= 1
 0 <= x194 <= 1
 0 <= x195 <= 1
 0 <= x196 <= 1
 0 <= x197 <= 1
 0 <= x198 <= 1
 0 <= x199 <= 1
 0 <= x200 <= 1
 0 <= x201 <= 1
 0 <= x202 <= 1
 0 <= x203 <= 1
 0 <= x204 <= 1
 0 <= x205 <= 1
 0 <= x206 <= 1
 0 <= x207 <= 1
 0 <= x208 <= 1
 0 <= x209 <= 1
 0 <= x210 <= 1
 0 <= x211 <= 1
 0 <= x212 <= 1
 0 <= x213 <= 1
 0 <= x214 <= 1
 0 <= x215 <= 1
 0 <= x216 <= 1
 0 <= x217 <= 1
 0 <= x218 <= 1
 0 <= x219 <= 1
 0 <= x220 <= 1
 0 <= x221 <= 1
 0 <= x222 <= 1
 0 <= x223 <= 1
 0 <= x224 <= 1
 0 <= x225 <= 1
 0 <= x226 <= 1
 0 <= x227 <= 1
 0 <= x228 <= 1
 0 <= x229 <= 1
 0 <= x230 <= 1
 0 <= x231 <= 1
 0 <= x232 <= 1
 0 <= x233 <= 1
 0 <= x234 <= 1
 0 <= x235 <= 1
 0 <= x236 <= 1
 0 <= x237 <= 1
 0 <= x238 <= 1
 0 <= x239 <= 1
 0 <= x240 <= 1
 0 <= x241 <= 1
 0 <= x242 <= 1
 0 <= x243 <= 1
 0 <= x244 <= 1
 0 <= x245 <= 1
 0 <= x246 <= 1
 0 <= x247 <= 1
 0 <= x248 <= 1
 0 <= x249 <= 1
 0 <= x250 <= 1
 0 <= x251 <= 1
 0 <= x252 <= 1
 0 <= x253 <= 1
 0 <= x254 <= 1
 0 <= x255 <= 1
 0 <= x256 <= 1
 0 <= x257 <= 1
 0 <= x258 <= 1
 0 <= x259 <= 1
 0 <= x260 <= 1
 0 <= x261 <= 1
 0 <= x262 <= 1
 0 <= x263 <= 1
 0 <= x264 <= 1
 0 <= x265 <= 1
 0 <= x266 <= 1
 0 <= x267 <= 1
 0 <= x268 <= 1
 0 <= x269 <= 1
 0 <= x270 <= 1
 0 <= x271 <= 1
 0 <= x272 <= 1
 0 <= x273 <= 1
 0 <= x274 <= 1
 0 <= x275 <= 1
 0 <= x276 <= 1
 0 <= x277 <= 1
 0 <= x278 <= 1
 0 <= x279 <= 1
 0 <= x280 <= 1
 0 <= x281 <= 1
 0 <= x282 <= 1
 0 <= x283 <= 1
 0 <= x284 <= 1
 0 <= x285 <= 1
 0 <= x286 <= 1
 0 <= x287 <= 1
 0 <= x288 <= 1
 0 <= x289 <= 1
 0 <= x290 <= 1
 0 <= x291 <= 1
 0 <= x292 <= 1
 0 <= x293 <= 1
 0 <= x294 <= 1
 0 <= x295 <= 1
 0 <= x296 <= 1
 0 <= x297 <= 1
 0 <= x298 <= 1
 0 <= x299 <= 1
 0 <= x300 <= 1
 0 <= x301 <= 1
 0 <= x302 <= 1
 0 <= x303 <= 1
 0 <= x304 <= 1
 0 <= x305 <= 1
 0 <= x306 <= 1
 0 <= x307 <= 1
 0 <= x308 <= 1
 0 <= x309 <= 1
 0 <= x310 <= 1
 0 <= x311 <= 1
 0 <= x312 <= 1
 0 <= x313 <= 1
 0 <= x314 <= 1
 0 <= x315 <= 1
 0 <= x316 <= 1
 0 <= x317 <= 1
 0 <= x318 <= 1
 0 <= x319 <= 1
 0 <= x320 <= 1
 0 <= x321 <= 1
 0 <= x322 <= 1
 0 <= x323 <= 1
 0 <= x324 <= 1
 0 <= x325 <= 1
 0 <= x326 <= 1
 0 <= x327 <= 1
 0 <= x328 <= 1
 0 <= x329 <= 1
 0 <= x330 <= 1
 0 <= x331 <= 1
 0 <= x332 <= 1
 0 <= x333 <= 1
 0 <= x334 <= 1
 0 <= x335 <= 1
 0 <= x336 <= 1
 0 <= x337 <= 1
 0 <= x338 <= 1
 0 <= x339 <= 1
 0 <= x340 <= 1
 0 <= x341 <= 1
 0 <= x342 <= 1
 0 <= x343 <= 1
 0 <= x344 <= 1
 0 <= x345 <= 1
 0 <= x346 <= 1
 0 <= x347 <= 1
 0 <= x348 <= 1
 0 <= x349 <= 1
 0 <= x350 <= 1
 0 <= x351 <= 1
 0 <= x352 <= 1
 0 <= x353 <= 1
 0 <= x354 <= 1
 0 <= x355 <= 1
 0 <= x356 <= 1
 0 <= x357 <= 1
 0 <= x358 <= 1
 0 <= x359 <= 1
 0 <= x360 <= 1
 0 <= x361 <= 1
 0 <= x362 <= 1
 0 <= x363 <= 1
 0 <= x364 <= 1
 0 <= x365 <= 1
 0 <= x366 <= 1
 0 <= x367 <= 1
 0 <= x368 <= 1
 0 <= x369 <= 1
 0 <= x370 <= 1
 0 <= x371 <= 1
 0 <= x372 <= 1
 0 <= x373 <= 1
 0 <= x374 <= 1
 0 <= x375 <= 1
 0 <= x376 <= 1
 0 <= x377 <= 1
 0 <= x378 <= 1
 0 <= x379 <= 1
 0 <= x380 <= 1
 0 <= x381 <= 1
 0 <= x382 <= 1
 0 <= x383 <= 1
 0 <= x384 <= 1
 0 <= x385 <= 1
 0 <= x386 <= 1
 0 <= x387 <= 1
 0 <= x388 <= 1
 0 <= x389 <= 1
 0 <= x390 <= 1
 0 <= x391 <= 1
 0 <= x392 <= 1
 0 <= x393 <= 1
 0 <= x394 <= 1
 0 <= x395 <= 1
 0 <= x396 <= 1
 0 <= x397 <= 1
 0 <= x398 <= 1
 0 <= x399 <= 1
 0 <= x400 <= 1
 0 <= x401 <= 1
 0 <= x402 <= 1
 0 <= x403 <= 1
 0 <= x404 <= 1
 0 <= x405 <= 1
 0 <= x406 <= 1
 0 <= x407 <= 1
 0 <= x408 <= 1
 0 <= x409 <= 1
 0 <= x410 <= 1
 0 <= x411 <= 1
 0 <= x412 <= 1
 0 <= x413 <= 1
 0 <= x414 <= 1
 0 <= x415 <= 1
 0 <= x416 <= 1
 0 <= x417 <= 1
 0 <= x418 <= 1
 0 <= x419 <= 1
 0 <= x420 <= 1
 0 <= x421 <= 1
 0 <= x422 <= 1
 0 <= x423 <= 1
 0 <= x424 <= 1
 0 <= x425 <= 1
 0 <= x426 <= 1
 0 <= x427 <= 1
 0 <= x428 <= 1
 0 <= x429 <= 1
 0 <= x430 <= 1
 0 <= x431 <= 1
 0 <= x432 <= 1
 0 <= x433 <= 1
 0 <= x434 <= 1
 0 <= x435 <= 1
 0 <= x436 <= 1
 0 <= x437 <= 1
 0 <= x438 <= 1
 0 <= x439 <= 1
 0 <= x440 <= 1
 0 <= x441 <= 1
 0 <= x442 <= 1
 0 <= x443 <= 1
 0 <= x444 <= 1
 0 <= x445 <= 1
 0 <= x446 <= 1
 0 <= x447 <= 1
 0 <= x448 <= 1
 0 <= x449 <= 1
 0 <= x450 <= 1
 0 <= x451 <= 1
 0 <= x452 <= 1
 0 <= x453 <= 1
 0 <= x454 <= 1
 0 <= x455 <= 1
 0 <= x456 <= 1
 0 <= x457 <= 1
 0 <= x458 <= 1
 0 <= x459 <= 1
 0 <= x460 <= 1
 0 <= x461 <= 1
 0 <= x462 <= 1
 0 <= x463 <= 1
 0 <= x464 <= 1
 0 <= x465 <= 1
 0 <= x466 <= 1
 0 <= x467 <= 1
 0 <= x468 <= 1
 0 <= x469 <= 1
 0 <= x470 <= 1
 0 <= x471 <= 1
 0 <= x472 <= 1
 0 <= x473 <= 1
 0 <= x474 <= 1
 0 <= x475 <= 1
 0 <= x476 <= 1
 0 <= x477 <= 1
 0 <= x478 <= 1
 0 <= x479 <= 1
 0 <= x480 <= 1
 0 <= x481 <= 1
 0 <= x482 <= 1
 0 <= x483 <= 1
 0 <= x484 <= 1
 0 <= x485 <= 1
 0 <= x486 <= 1
 0 <= x487 <= 1
 0 <= x488 <= 1
 0 <= x489 <= 1
 0 <= x490 <= 1
 0 <= x491 <= 1
 0 <= x492 <= 1
 0 <= x493 <= 1
 0 <= x494 <= 1
 0 <= x495 <= 1
 0 <= x496 <= 1
 0 <= x497 <= 1
 0 <= x498 <= 1
 0 <= x499 <= 1
 0 <= x500 <= 1
 0 <= x501 <= 1
 0 <= x502 <= 1
 0 <= x503 <= 1
 0 <= x504 <= 1
 0 <= x505 <= 1
 0 <= x506 <= 1
 0 <= x507 <= 1
 0 <= x508 <= 1
 0 <= x509 <= 1
 0 <= x510 <= 1
 0 <= x511 <= 1
 0 <= x512 <= 1
 0 <= x513 <= 1
 0 <= x514 <= 1
 0 <= x515 <= 1
 0 <= x516 <= 1
 0 <= x517 <= 1
 0 <= x518 <= 1
 0 <= x519 <= 1
 0 <= x520 <= 1
 0 <= x521 <= 1
 0 <= x522 <= 1
 0 <= x523 <= 1
 0 <= x524 <= 1
 0 <= x525 <= 1
 0 <= x526 <= 1
 0 <= x527 <= 1
 0 <= x528 <= 1
 0 <= x529 <= 1
 0 <= x530 <= 1
 0 <= x531 <= 1
 0 <= x532 <= 1
 0 <= x533 <= 1
 0 <= x534 <= 1
 0 <= x535 <= 1
 0 <= x536 <= 1
 0 <= x537 <= 1
 0 <= x538 <= 1
 0 <= x539 <= 1
 0 <= x540 <= 1
 0 <= x541 <= 1
 0 <= x542 <= 1
 0 <= x543 <= 1
 0 <= x544 <= 1
 0 <= x545 <= 1
 0 <= x546 <= 1
 0 <= x547 <= 1
 0 <= x548 <= 1
 0 <= x549 <= 1
 0 <= x550 <= 1
 0 <= x551 <= 1
 0 <= x552 <= 1
 0 <= x553 <= 1
 0 <= x554 <= 1
 0 <= x555 <= 1
 0 <= x556 <= 1
 0 <= x557 <= 1
 0 <= x558 <= 1
 0 <= x559 <= 1
 0 <= x560 <= 1
 0 <= x561 <= 1
 0 <= x562 <= 1
 0 <= x563 <= 1
 0 <= x564 <= 1
 0 <= x565 <= 1
 0 <= x566 <= 1
 0 <= x567 <= 1
 0 <= x568 <= 1
 0 <= x569 <= 1
 0 <= x570 <= 1
 0 <= x571 <= 1
 0 <= x572 <= 1
 0 <= x573 <= 1
 0 <= x574 <= 1
 0 <= x575 <= 1
 0 <= x576 <= 1
 0 <= x577 <= 1
 0 <= x578 <= 1
 0 <= x579 <= 1
 0 <= x580 <= 1
 0 <= x581 <= 1
 0 <= x582 <= 1
 0 <= x583 <= 1
 0 <= x584 <= 1
 0 <= x585 <= 1
 0 <= x586 <= 1
 0 <= x587 <= 1
 0 <= x588 <= 1
 0 <= x589 <= 1
 0 <= x590 <= 1
 0 <= x591 <= 1
 0 <= x592 <= 1
 0 <= x593 <= 1
 0 <= x594 <= 1
 0 <= x595 <= 1
 0 <= x596 <= 1
 0 <= x597 <= 1
 0 <= x598 <= 1
 0 <= x599 <= 1
 0 <= x600 <= 1
 0 <= x601 <= 1
 0 <= x602 <= 1
 0 <= x603 <= 1
 0 <= x604 <= 1
 0 <= x605 <= 1
 0 <= x606 <= 1
 0 <= x607 <= 1
 0 <= x608 <= 1
 0 <= x609 <= 1
 0 <= x610 <= 1
 0 <= x611 <= 1
 0 <= x612 <= 1
 0 <= x613 <= 1
 0 <= x614 <= 1
 0 <= x615 <= 1
 0 <= x616 <= 1
 0 <= x617 <= 1
 0 <= x618 <= 1
 0 <= x619 <= 1
 0 <= x620 <= 1
 0 <= x621 <= 1
 0 <= x622 <= 1
 0 <= x623 <= 1
 0 <= x624 <= 1
 0 <= x625 <= 1
 0 <= x626 <= 1
 0 <= x627 <= 1
 0 <= x628 <= 1
 0 <= x629 <= 1
 0 <= x630 <= 1
 0 <= x631 <= 1
 0 <= x632 <= 1
 0 <= x633 <= 1
 0 <= x634 <= 1
 0 <= x635 <= 1
 0 <= x636 <= 1
 0 <= x637 <= 1
 0 <= x638 <= 1
 0 <= x639 <= 1
 0 <= x640 <= 1
 0 <= x641 <= 1
 0 <= x642 <= 1
 0 <= x643 <= 1
 0 <= x644 <= 1
 0 <= x645 <= 1
 0 <= x646 <= 1
 0 <= x647 <= 1
 0 <= x648 <= 1
 0 <= x649 <= 1
 0 <= x650 <= 1
 0 <= x651 <= 1
 0 <= x652 <= 1
 0 <= x653 <= 1
 0 <= x654 <= 1
 0 <= x655 <= 1
 0 <= x656 <= 1
 0 <= x657 <= 1
 0 <= x658 <= 1
 0 <= x659 <= 1
 0 <= x660 <= 1
Binaries
 x601  x602  x603  x604  x605  x606  x607  x608  x609  x610  x611  x612  x613 
 x614  x615  x616  x617  x618  x619  x620  x621  x622  x623  x624  x625  x626 
 x627  x628  x629  x630  x631  x632  x633  x634  x635  x636  x637  x638  x639 
 x640  x641  x642  x643  x644  x645  x646  x647  x648  x649  x650  x651  x652 
 x653  x654  x655  x656  x657  x658  x659  x660 
End
